;; translated from ./bv/nested8.c.vmt
;; original benchmark available at: https://es-static.fbk.eu/people/griggio/ic3ia/index.html
;; author: Alberto Griggio <griggio@fbk.eu>
(set-logic HORN)
(declare-fun state (Bool Bool Bool Bool (_ BitVec 32) (_ BitVec 32) (_ BitVec 32) (_ BitVec 32) (_ BitVec 32) (_ BitVec 32)) Bool)
(assert (forall ((|.PC.1| Bool) (|.PC.0| Bool) (|.PC.0.next| Bool) (|.PC.1.next| Bool) (|.PC.2.next| Bool) (|.PC.3.next| Bool) (|m__9$main| (_ BitVec 32)) (|m__9$main.next| (_ BitVec 32)) (|j__3$main.next| (_ BitVec 32)) (|j__3$main| (_ BitVec 32)) (|__RET__$main.next| (_ BitVec 32)) (|__RET__$main| (_ BitVec 32)) (|k__5$main.next| (_ BitVec 32)) (|k__5$main| (_ BitVec 32)) (|n__7$main| (_ BitVec 32)) (|n__7$main.next| (_ BitVec 32)) (|i__1$main| (_ BitVec 32)) (|i__1$main.next| (_ BitVec 32)) (|__NONDET_INLINE_INIT__10__9$main#1| (_ BitVec 32)) (|__NONDET_INLINE_INIT__8__8$main#0| (_ BitVec 32)) (|.PC.3| Bool) (|.PC.2| Bool)) (=> (let ((.def_18 (not .PC.3)))
(let ((.def_15 (not .PC.2)))
(let ((.def_12 (not .PC.1)))
(let ((.def_10 (not .PC.0)))
(let ((.def_13 (and .def_10 .def_12)))
(let ((.def_16 (and .def_13 .def_15)))
(let ((.def_19 (and .def_16 .def_18)))
.def_19))))))) (state |.PC.0| |.PC.1| |.PC.2| |.PC.3| |j__3$main| |__RET__$main| |k__5$main| |n__7$main| |i__1$main| |m__9$main|))))
(assert (forall ((|.PC.1| Bool) (|.PC.0| Bool) (|.PC.0.next| Bool) (|.PC.1.next| Bool) (|.PC.2.next| Bool) (|.PC.3.next| Bool) (|m__9$main| (_ BitVec 32)) (|m__9$main.next| (_ BitVec 32)) (|j__3$main.next| (_ BitVec 32)) (|j__3$main| (_ BitVec 32)) (|__RET__$main.next| (_ BitVec 32)) (|__RET__$main| (_ BitVec 32)) (|k__5$main.next| (_ BitVec 32)) (|k__5$main| (_ BitVec 32)) (|n__7$main| (_ BitVec 32)) (|n__7$main.next| (_ BitVec 32)) (|i__1$main| (_ BitVec 32)) (|i__1$main.next| (_ BitVec 32)) (|__NONDET_INLINE_INIT__10__9$main#1| (_ BitVec 32)) (|__NONDET_INLINE_INIT__8__8$main#0| (_ BitVec 32)) (|.PC.3| Bool) (|.PC.2| Bool)) (=> (and (state |.PC.0| |.PC.1| |.PC.2| |.PC.3| |j__3$main| |__RET__$main| |k__5$main| |n__7$main| |i__1$main| |m__9$main|) (let ((.def_171 (and .PC.0 .PC.1)))
(let ((.def_172 (and .PC.2 .def_171)))
(let ((.def_18 (not .PC.3)))
(let ((.def_173 (and .def_18 .def_172)))
(let ((.def_165 (and .PC.1.next .PC.0.next)))
(let ((.def_166 (and .PC.2.next .def_165)))
(let ((.def_54 (not .PC.3.next)))
(let ((.def_167 (and .def_54 .def_166)))
(let ((.def_174 (and .def_167 .def_173)))
(let ((.def_67 (= m__9$main.next m__9$main)))
(let ((.def_36 (= j__3$main j__3$main.next)))
(let ((.def_160 (and .def_36 .def_67)))
(let ((.def_40 (= __RET__$main __RET__$main.next)))
(let ((.def_161 (and .def_40 .def_160)))
(let ((.def_44 (= k__5$main k__5$main.next)))
(let ((.def_162 (and .def_44 .def_161)))
(let ((.def_71 (= n__7$main.next n__7$main)))
(let ((.def_163 (and .def_71 .def_162)))
(let ((.def_73 (= i__1$main.next i__1$main)))
(let ((.def_164 (and .def_73 .def_163)))
(let ((.def_168 (and .def_164 .def_167)))
(let ((.def_10 (not .PC.0)))
(let ((.def_157 (and .def_10 .PC.1)))
(let ((.def_158 (and .PC.2 .def_157)))
(let ((.def_159 (and .def_18 .def_158)))
(let ((.def_169 (and .def_159 .def_168)))
(let ((.def_146 (bvadd (_ bv1 32) k__5$main)))
(let ((.def_147 (= k__5$main.next .def_146)))
(let ((.def_127 (bvadd j__3$main i__1$main)))
(let ((.def_128 (bvadd k__5$main n__7$main)))
(let ((.def_129 (bvadd m__9$main .def_128)))
(let ((.def_130 (bvslt .def_129 .def_127)))
(let ((.def_144 (not .def_130)))
(let ((.def_111 (bvadd n__7$main m__9$main)))
(let ((.def_112 (bvslt k__5$main .def_111)))
(let ((.def_145 (and .def_112 .def_144)))
(let ((.def_148 (and .def_145 .def_147)))
(let ((.def_149 (and .def_36 .def_148)))
(let ((.def_150 (and .def_67 .def_149)))
(let ((.def_151 (and .def_40 .def_150)))
(let ((.def_152 (and .def_71 .def_151)))
(let ((.def_153 (and .def_73 .def_152)))
(let ((.def_49 (not .PC.1.next)))
(let ((.def_51 (and .def_49 .PC.0.next)))
(let ((.def_105 (and .PC.2.next .def_51)))
(let ((.def_106 (and .def_54 .def_105)))
(let ((.def_154 (and .def_106 .def_153)))
(let ((.def_12 (not .PC.1)))
(let ((.def_58 (and .PC.0 .def_12)))
(let ((.def_123 (and .PC.2 .def_58)))
(let ((.def_124 (and .def_18 .def_123)))
(let ((.def_155 (and .def_124 .def_154)))
(let ((.def_75 (not .PC.0.next)))
(let ((.def_138 (and .PC.1.next .def_75)))
(let ((.def_139 (and .PC.2.next .def_138)))
(let ((.def_140 (and .def_54 .def_139)))
(let ((.def_131 (and .def_112 .def_130)))
(let ((.def_132 (and .def_36 .def_131)))
(let ((.def_133 (and .def_67 .def_132)))
(let ((.def_134 (and .def_40 .def_133)))
(let ((.def_135 (and .def_44 .def_134)))
(let ((.def_136 (and .def_71 .def_135)))
(let ((.def_137 (and .def_73 .def_136)))
(let ((.def_141 (and .def_137 .def_140)))
(let ((.def_142 (and .def_124 .def_141)))
(let ((.def_114 (bvadd (_ bv1 32) j__3$main)))
(let ((.def_115 (= j__3$main.next .def_114)))
(let ((.def_113 (not .def_112)))
(let ((.def_116 (and .def_113 .def_115)))
(let ((.def_117 (and .def_67 .def_116)))
(let ((.def_118 (and .def_40 .def_117)))
(let ((.def_119 (and .def_44 .def_118)))
(let ((.def_120 (and .def_71 .def_119)))
(let ((.def_121 (and .def_73 .def_120)))
(let ((.def_76 (and .def_49 .def_75)))
(let ((.def_77 (and .PC.2.next .def_76)))
(let ((.def_78 (and .def_54 .def_77)))
(let ((.def_122 (and .def_78 .def_121)))
(let ((.def_125 (and .def_122 .def_124)))
(let ((.def_98 (= j__3$main k__5$main.next)))
(let ((.def_82 (bvslt j__3$main n__7$main)))
(let ((.def_99 (and .def_82 .def_98)))
(let ((.def_100 (and .def_36 .def_99)))
(let ((.def_101 (and .def_67 .def_100)))
(let ((.def_102 (and .def_40 .def_101)))
(let ((.def_103 (and .def_71 .def_102)))
(let ((.def_104 (and .def_73 .def_103)))
(let ((.def_107 (and .def_104 .def_106)))
(let ((.def_13 (and .def_10 .def_12)))
(let ((.def_94 (and .def_13 .PC.2)))
(let ((.def_95 (and .def_18 .def_94)))
(let ((.def_108 (and .def_95 .def_107)))
(let ((.def_85 (bvadd (_ bv1 32) i__1$main)))
(let ((.def_86 (= i__1$main.next .def_85)))
(let ((.def_83 (not .def_82)))
(let ((.def_87 (and .def_83 .def_86)))
(let ((.def_88 (and .def_36 .def_87)))
(let ((.def_89 (and .def_67 .def_88)))
(let ((.def_90 (and .def_40 .def_89)))
(let ((.def_91 (and .def_44 .def_90)))
(let ((.def_92 (and .def_71 .def_91)))
(let ((.def_47 (not .PC.2.next)))
(let ((.def_52 (and .def_47 .def_51)))
(let ((.def_55 (and .def_52 .def_54)))
(let ((.def_93 (and .def_55 .def_92)))
(let ((.def_96 (and .def_93 .def_95)))
(let ((.def_64 (= j__3$main.next (_ bv0 32))))
(let ((.def_63 (bvslt i__1$main n__7$main)))
(let ((.def_65 (and .def_63 .def_64)))
(let ((.def_68 (and .def_65 .def_67)))
(let ((.def_69 (and .def_40 .def_68)))
(let ((.def_70 (and .def_44 .def_69)))
(let ((.def_72 (and .def_70 .def_71)))
(let ((.def_74 (and .def_72 .def_73)))
(let ((.def_79 (and .def_74 .def_78)))
(let ((.def_15 (not .PC.2)))
(let ((.def_59 (and .def_15 .def_58)))
(let ((.def_60 (and .def_18 .def_59)))
(let ((.def_80 (and .def_60 .def_79)))
(let ((.def_32 (= i__1$main.next (_ bv0 32))))
(let ((.def_27 (bvslt m__9$main.next n__7$main.next)))
(let ((.def_28 (not .def_27)))
(let ((.def_25 (= m__9$main.next |__NONDET_INLINE_INIT__10__9$main#1|)))
(let ((.def_22 (= n__7$main.next |__NONDET_INLINE_INIT__8__8$main#0|)))
(let ((.def_26 (and .def_22 .def_25)))
(let ((.def_29 (and .def_26 .def_28)))
(let ((.def_33 (and .def_29 .def_32)))
(let ((.def_37 (and .def_33 .def_36)))
(let ((.def_41 (and .def_37 .def_40)))
(let ((.def_45 (and .def_41 .def_44)))
(let ((.def_56 (and .def_45 .def_55)))
(let ((.def_16 (and .def_13 .def_15)))
(let ((.def_19 (and .def_16 .def_18)))
(let ((.def_57 (and .def_19 .def_56)))
(let ((.def_81 (or .def_57 .def_80)))
(let ((.def_97 (or .def_81 .def_96)))
(let ((.def_109 (or .def_97 .def_108)))
(let ((.def_126 (or .def_109 .def_125)))
(let ((.def_143 (or .def_126 .def_142)))
(let ((.def_156 (or .def_143 .def_155)))
(let ((.def_170 (or .def_156 .def_169)))
(let ((.def_175 (or .def_170 .def_174)))
.def_175))))))))))))))))))))))))))))))))))))))))))))))))))))))))))))))))))))))))))))))))))))))))))))))))))))))))))))))))))))))))))))))))))))))))))))))) (state |.PC.0.next| |.PC.1.next| |.PC.2.next| |.PC.3.next| |j__3$main.next| |__RET__$main.next| |k__5$main.next| |n__7$main.next| |i__1$main.next| |m__9$main.next|))))
(assert (forall ((|.PC.1| Bool) (|.PC.0| Bool) (|.PC.0.next| Bool) (|.PC.1.next| Bool) (|.PC.2.next| Bool) (|.PC.3.next| Bool) (|m__9$main| (_ BitVec 32)) (|m__9$main.next| (_ BitVec 32)) (|j__3$main.next| (_ BitVec 32)) (|j__3$main| (_ BitVec 32)) (|__RET__$main.next| (_ BitVec 32)) (|__RET__$main| (_ BitVec 32)) (|k__5$main.next| (_ BitVec 32)) (|k__5$main| (_ BitVec 32)) (|n__7$main| (_ BitVec 32)) (|n__7$main.next| (_ BitVec 32)) (|i__1$main| (_ BitVec 32)) (|i__1$main.next| (_ BitVec 32)) (|__NONDET_INLINE_INIT__10__9$main#1| (_ BitVec 32)) (|__NONDET_INLINE_INIT__8__8$main#0| (_ BitVec 32)) (|.PC.3| Bool) (|.PC.2| Bool)) (=> (state |.PC.0| |.PC.1| |.PC.2| |.PC.3| |j__3$main| |__RET__$main| |k__5$main| |n__7$main| |i__1$main| |m__9$main|) (let ((.def_171 (and .PC.0 .PC.1)))
(let ((.def_172 (and .PC.2 .def_171)))
(let ((.def_18 (not .PC.3)))
(let ((.def_173 (and .def_18 .def_172)))
(let ((.def_176 (not .def_173)))
.def_176))))))))
(check-sat)
